* #variable= 200 #constraint= 1
min: -748 x1 -482 x2 -512 x3 -803 x4 -246 x5 -340 x6 -487 x7 -336 x8 -976 x9 -62 x10 -174 x11 -845 x12 -433 x13 -662 x14 -856 x15 -392 x16 -425 x17 -235 x18 -766 x19 -359 x20 -1000 x21 -467 x22 -567 x23 -431 x24 -760 x25 -543 x26 -280 x27 -238 x28 -329 x29 -859 x30 -137 x31 -120 x32 -321 x33 -74 x34 -484 x35 -694 x36 -29 x37 -343 x38 -74 x39 -134 x40 -209 x41 -734 x42 -284 x43 -459 x44 -832 x45 -560 x46 -947 x47 -124 x48 -993 x49 -813 x50 -52 x51 -227 x52 -222 x53 -484 x54 -516 x55 -772 x56 -922 x57 -734 x58 -899 x59 -501 x60 -222 x61 -425 x62 -536 x63 -620 x64 -136 x65 -920 x66 -265 x67 -243 x68 -384 x69 -304 x70 -549 x71 -937 x72 -544 x73 -557 x74 -897 x75 -603 x76 -928 x77 -603 x78 -971 x79 -848 x80 -771 x81 -592 x82 -294 x83 -666 x84 -74 x85 -294 x86 -258 x87 -879 x88 -499 x89 -479 x90 -727 x91 -159 x92 -438 x93 -657 x94 -30 x95 -689 x96 -435 x97 -9 x98 -228 x99 -342 x100 -443 x101 -403 x102 -748 x103 -15 x104 -969 x105 -383 x106 -176 x107 -481 x108 -141 x109 -720 x110 -284 x111 -518 x112 -765 x113 -183 x114 -631 x115 -32 x116 -216 x117 -292 x118 -558 x119 -823 x120 -569 x121 -692 x122 -135 x123 -490 x124 -748 x125 -598 x126 -327 x127 -450 x128 -224 x129 -15 x130 -808 x131 -497 x132 -777 x133 -261 x134 -155 x135 -186 x136 -952 x137 -401 x138 -350 x139 -162 x140 -570 x141 -949 x142 -314 x143 -683 x144 -42 x145 -661 x146 -19 x147 -722 x148 -780 x149 -59 x150 -77 x151 -14 x152 -127 x153 -66 x154 -871 x155 -449 x156 -773 x157 -396 x158 -687 x159 -708 x160 -730 x161 -663 x162 -746 x163 -938 x164 -79 x165 -418 x166 -630 x167 -686 x168 -882 x169 -389 x170 -238 x171 -81 x172 -28 x173 -486 x174 -976 x175 -43 x176 -662 x177 -208 x178 -895 x179 -899 x180 -281 x181 -294 x182 -305 x183 -378 x184 -969 x185 -206 x186 -292 x187 -641 x188 -884 x189 -640 x190 -697 x191 -899 x192 -197 x193 -269 x194 -941 x195 -516 x196 -984 x197 -397 x198 -816 x199 -617 x200 ;
-748 x1 -482 x2 -512 x3 -803 x4 -246 x5 -340 x6 -487 x7 -336 x8 -976 x9 -62 x10 -174 x11 -845 x12 -433 x13 -662 x14 -856 x15 -392 x16 -425 x17 -235 x18 -766 x19 -359 x20 -1000 x21 -467 x22 -567 x23 -431 x24 -760 x25 -543 x26 -280 x27 -238 x28 -329 x29 -859 x30 -137 x31 -120 x32 -321 x33 -74 x34 -484 x35 -694 x36 -29 x37 -343 x38 -74 x39 -134 x40 -209 x41 -734 x42 -284 x43 -459 x44 -832 x45 -560 x46 -947 x47 -124 x48 -993 x49 -813 x50 -52 x51 -227 x52 -222 x53 -484 x54 -516 x55 -772 x56 -922 x57 -734 x58 -899 x59 -501 x60 -222 x61 -425 x62 -536 x63 -620 x64 -136 x65 -920 x66 -265 x67 -243 x68 -384 x69 -304 x70 -549 x71 -937 x72 -544 x73 -557 x74 -897 x75 -603 x76 -928 x77 -603 x78 -971 x79 -848 x80 -771 x81 -592 x82 -294 x83 -666 x84 -74 x85 -294 x86 -258 x87 -879 x88 -499 x89 -479 x90 -727 x91 -159 x92 -438 x93 -657 x94 -30 x95 -689 x96 -435 x97 -9 x98 -228 x99 -342 x100 -443 x101 -403 x102 -748 x103 -15 x104 -969 x105 -383 x106 -176 x107 -481 x108 -141 x109 -720 x110 -284 x111 -518 x112 -765 x113 -183 x114 -631 x115 -32 x116 -216 x117 -292 x118 -558 x119 -823 x120 -569 x121 -692 x122 -135 x123 -490 x124 -748 x125 -598 x126 -327 x127 -450 x128 -224 x129 -15 x130 -808 x131 -497 x132 -777 x133 -261 x134 -155 x135 -186 x136 -952 x137 -401 x138 -350 x139 -162 x140 -570 x141 -949 x142 -314 x143 -683 x144 -42 x145 -661 x146 -19 x147 -722 x148 -780 x149 -59 x150 -77 x151 -14 x152 -127 x153 -66 x154 -871 x155 -449 x156 -773 x157 -396 x158 -687 x159 -708 x160 -730 x161 -663 x162 -746 x163 -938 x164 -79 x165 -418 x166 -630 x167 -686 x168 -882 x169 -389 x170 -238 x171 -81 x172 -28 x173 -486 x174 -976 x175 -43 x176 -662 x177 -208 x178 -895 x179 -899 x180 -281 x181 -294 x182 -305 x183 -378 x184 -969 x185 -206 x186 -292 x187 -641 x188 -884 x189 -640 x190 -697 x191 -899 x192 -197 x193 -269 x194 -941 x195 -516 x196 -984 x197 -397 x198 -816 x199 -617 x200 >= -1000 ;